SCIP Status        : solving was interrupted [time limit reached]
Total Time         :    3600.06
  solving          :    3600.04
  presolving       :       0.33 (included in solving)
  reading          :       0.02
  copying          :       0.50 (29 #copies) (minimal 0.01, maximal 0.12, average 0.02)
Original Problem   :
  Problem name     : waterno2_24
  Variables        : 3984 (0 binary, 216 integer, 0 implicit integer, 3768 continuous)
  Constraints      : 4942 initial, 4942 maximal
  Objective        : minimize, 216 non-zeros (abs.min = 1, abs.max = 1)
Presolved Problem  :
  Problem name     : t_waterno2_24
  Variables        : 5866 (210 binary, 0 integer, 0 implicit integer, 5656 continuous)
  Constraints      : 3885 initial, 3940 maximal
  Objective        : minimize, 216 non-zeros (abs.min = 1, abs.max = 1)
  Nonzeros         : 11463 constraint, 310 clique table
Presolvers         :   ExecTime  SetupTime  Calls  FixedVars   AggrVars   ChgTypes  ChgBounds   AddHoles    DelCons    AddCons   ChgSides   ChgCoefs
  boundshift       :       0.00       0.00      0          0          0          0          0          0          0          0          0          0
  convertinttobin  :       0.00       0.00      0          0          0          0          0          0          0          0          0          0
  domcol           :       0.00       0.00      2          0          0          0          0          0          0          0          0          0
  dualagg          :       0.00       0.00      0          0          0          0          0          0          0          0          0          0
  dualcomp         :       0.00       0.00      2          0          0          0          0          0          0          0          0          0
  dualinfer        :       0.00       0.00      0          0          0          0          0          0          0          0          0          0
  dualsparsify     :       0.00       0.00      1          0          0          0          0          0          0          0          0          0
  gateextraction   :       0.00       0.00      3          0          0          0          0          0          0          0          0          0
  implics          :       0.00       0.00      6          0          0          0          0          0          0          0          0          0
  inttobinary      :       0.00       0.00      0          0          0          0          0          0          0          0          0          0
  qpkktref         :       0.00       0.00      0          0          0          0          0          0          0          0          0          0
  redvub           :       0.00       0.00      0          0          0          0          0          0          0          0          0          0
  sparsify         :       0.00       0.00      1          0          0          0          0          0          0          0          0          0
  stuffing         :       0.00       0.00      0          0          0          0          0          0          0          0          0          0
  trivial          :       0.00       0.00     11       1593          0          0          0          0          0          0          0          0
  tworowbnd        :       0.00       0.00      0          0          0          0          0          0          0          0          0          0
  dualfix          :       0.00       0.00     11       1584          0          0          0          0          0          0          0          0
  genvbounds       :       0.00       0.00      5          0          0          0          0          0          0          0          0          0
  probing          :       0.06       0.00      1          0          0          0          2          0          0          0          0          0
  pseudoobj        :       0.00       0.00      1          0          0          0          0          0          0          0          0          0
  symmetry         :       0.01       0.00      1          0          0          0          0          0          0          0          0          0
  vbounds          :       0.00       0.00      2          0          0          0          0          0          0          0          0          0
  varbound         :       0.00       0.00     10          0          0          0          0          0          3          0          0         52
  setppc           :       0.00       0.00     14          0          0          0          0          0          0          0          0          0
  linear           :       0.03       0.00     17         27       1142          0       2146          0       1312          0        813        813
  logicor          :       0.00       0.00      9          0          0          0          0          0          0          0          0          0
  bounddisjunction :       0.00       0.00      5          0          0          0          0          0          0          0          0          0
  nonlinear        :       0.20       0.03     19          0          0          0       1801          0          0          0          0       -865
  benders          :       0.00       0.00      0          0          0          0          0          0          0          0          0          0
  components       :       0.00       0.00      2          0          0          0          0          0          0          0          0          0
  root node        :          -          -      -         10          -          -       7025          -          -          -          -          -
Constraints        :     Number  MaxNumber  #Separate #Propagate    #EnfoLP    #EnfoRelax  #EnfoPS    #Check   #ResProp    Cutoffs    DomReds       Cuts    Applied      Conss   Children
  benderslp        :          0          0          0          0      14280          0          0       5095          0          0          0          0          0          0          0
  integral         :          0          0          0          0      14280          0          0       5095          0          0      24574          0          0          2      24814
  varbound         :        755        755        126     309786          0          0          0       5089       2548         77      15999          2          1          0          0
  setppc           :        115        115        126     309605          0          0          0       1125        692          3      10879          0          0          0          0
  linear           :       1444+      1454        126     309706          0          0          0       1125       1327        213      78446         14          4          0          0
  logicor          :          1+         3         60       5347          0          0          0          0          0          0          0          0          0          0          0
  bounddisjunction :         16+        80          0      46527          0          0          0          0         74          0       4212          0          0          0          0
  nonlinear        :       1554       1554      57318     309493          0          0          0       1123          0       2569     419430    1926025    1062702          0          0
  benders          :          0          0          0          0          0          0          0         10          0          0          0          0          0          0          0
  countsols        :          0          0          0          0          0          0          0         10          0          0          0          0          0          0          0
  components       :          0          0          0          0          0          0          0          0          0          0          0          0          0          0          0
Constraint Timings :  TotalTime  SetupTime   Separate  Propagate     EnfoLP     EnfoPS     EnfoRelax   Check    ResProp    SB-Prop
  benderslp        :       0.01       0.00       0.00       0.00       0.01       0.00       0.00       0.00       0.00       0.00
  integral         :      55.26       0.00       0.00       0.00      55.26       0.00       0.00       0.00       0.00       0.00
  varbound         :       1.00       0.00       0.02       0.79       0.00       0.00       0.00       0.13       0.00       0.06
  setppc           :       0.32       0.00       0.00       0.29       0.00       0.00       0.00       0.00       0.00       0.02
  linear           :       2.98       0.00       0.09       2.61       0.00       0.00       0.00       0.07       0.09       0.12
  logicor          :       0.01       0.00       0.00       0.01       0.00       0.00       0.00       0.00       0.00       0.00
  bounddisjunction :       0.24       0.00       0.00       0.23       0.00       0.00       0.00       0.00       0.00       0.00
  nonlinear        :    1110.66       0.03    1070.77      37.45       0.00       0.00       0.00       1.43       0.00       0.97
  benders          :       0.00       0.00       0.00       0.00       0.00       0.00       0.00       0.00       0.00       0.00
  countsols        :       0.00       0.00       0.00       0.00       0.00       0.00       0.00       0.00       0.00       0.00
  components       :       0.02       0.00       0.00       0.02       0.00       0.00       0.00       0.00       0.00       0.00
Propagators        : #Propagate   #ResProp    Cutoffs    DomReds
  dualfix          :         58          0          0          0
  genvbounds       :      23623        106          0      28397
  nlobbt           :          0          0          0          0
  obbt             :         27          0          0         75
  probing          :          0          0          0          0
  pseudoobj        :      84337          0          0          0
  redcost          :      86745          0          0          0
  rootredcost      :          7          0          0          0
  symmetry         :          0          0          0          0
  vbounds          :     162529          0          0          0
Propagator Timings :  TotalTime  SetupTime   Presolve  Propagate    ResProp    SB-Prop
  dualfix          :       0.01       0.00       0.00       0.01       0.00       0.00
  genvbounds       :       0.35       0.00       0.00       0.33       0.02       0.00
  nlobbt           :       0.00       0.00       0.00       0.00       0.00       0.00
  obbt             :      77.99       0.00       0.00      77.99       0.00       0.00
  probing          :       0.06       0.00       0.06       0.00       0.00       0.00
  pseudoobj        :       1.22       0.00       0.00       1.22       0.00       0.00
  redcost          :       6.68       0.00       0.00       6.68       0.00       0.00
  rootredcost      :       0.04       0.00       0.00       0.04       0.00       0.00
  symmetry         :       0.04       0.00       0.01       0.03       0.00       0.00
  vbounds          :       0.25       0.00       0.00       0.24       0.00       0.01
Conflict Analysis  :       Time      Calls    Success    DomReds  Conflicts   Literals    Reconvs ReconvLits   Dualrays   Nonzeros   LP Iters   (pool size: [10000,10000])
  propagation      :       0.01         83         80          -        120        4.3         68       13.6          -          -          -
  infeasible LP    :       0.29        134        111          -        315       20.4        113        3.2        111       16.2          0
  bound exceed. LP :       0.10         35         19          -          0        0.0          0        0.0         19      444.0         40
  strong branching :       0.00          0          0          -          0        0.0          0        0.0          -          -          0
  pseudo solution  :       0.00          0          0          -          0        0.0          0        0.0          -          -          -
  applied globally :       0.08          -          -          0        192        3.7          -          -         83          -          -
  applied locally  :          -          -          -          0         28        7.6          -          -         47          -          -
Separators         :   ExecTime  SetupTime      Calls  RootCalls    Cutoffs    DomReds  FoundCuts ViaPoolAdd  DirectAdd    Applied ViaPoolApp  DirectApp      Conss
  cut pool         :       0.80          -       8457        225          -          -      18655      67321          -          -          -          -          -    (maximal pool size:       7223)
  aggregation      :      19.34       0.00       2663        126          0          0       9685      17023          0       6644       6644          0          0
  > cmir           :          -          -          -          -          -          -          -      14869          0       5897       5897          0          -
  > flowcover      :          -          -          -          -          -          -          -       2149          0        743        743          0          -
  > knapsackcover  :          -          -          -          -          -          -          -          5          0          4          4          0          -
  cgmip            :       0.00       0.00          0          0          0          0          0          0          0          0          0          0          0
  clique           :       0.02       0.00        126        126          0          0          0          0          0          0          0          0          0
  closecuts        :       0.00       0.00          0          0          0          0          0          0          0          0          0          0          0
  convexproj       :       0.00       0.00          0          0          0          0          0          0          0          0          0          0          0
  disjunctive      :       0.00       0.00          0          0          0          0          0          0          0          0          0          0          0
  eccuts           :       0.00       0.00          0          0          0          0          0          0          0          0          0          0          0
  gauge            :       0.00       0.00          0          0          0          0          0          0          0          0          0          0          0
  gomory           :      22.68       0.00       1888         20          0          0       5414      37892          0       9821       9821          0          0
  > gomorymi       :          -          -          -          -          -          -          -      37892          0       9821       9821          0          -
  > strongcg       :          -          -          -          -          -          -          -          0          0          0          0          0          -
  impliedbounds    :       0.95       0.00       2663        126          0          0       2897       8380          0       3525       3525          0          0
  interminor       :       0.00       0.00          0          0          0          0          0          0          0          0          0          0          0
  intobj           :       0.00       0.00          0          0          0          0          0          0          0          0          0          0          0
  mcf              :       0.27       0.00         29         29          0          0          0          0          0          0          0          0          0
  minor            :       0.04       0.00         82         82          0          0       2315          0       2315        456          0        456          0
  mixing           :       1.20       0.00       2663        126          0          0        657       4022          0       2996       2996          0          0
  oddcycle         :       0.00       0.00          0          0          0          0          0          0          0          0          0          0          0
  rapidlearning    :       0.00       0.00          0          0          0          0          0          0          0          0          0          0          0
  rlt              :       0.02       0.00         20         20          0          0          1          2          0          1          1          0          0
  zerohalf         :       6.21       0.00       1908         40          0          0          1          2          0          2          2          0          0
Cutselectors       :   ExecTime  SetupTime      Calls  RootCalls   Selected     Forced   Filtered  RootSelec   RootForc   RootFilt 
  hybrid           :       1.95       0.00      57328        136    1784970          0     210707       9343          0      15695
Pricers            :   ExecTime  SetupTime      Calls       Vars
  problem variables:       0.00          -          0          0
Branching Rules    :   ExecTime  SetupTime   BranchLP  BranchExt   BranchPS    Cutoffs    DomReds       Cuts      Conss   Children
  allfullstrong    :       0.00       0.00          0          0          0          0          0          0          0          0
  cloud            :       0.00       0.00          0          0          0          0          0          0          0          0
  distribution     :       0.00       0.00          0          0          0          0          0          0          0          0
  fullstrong       :       0.00       0.00          0          0          0          0          0          0          0          0
  inference        :       0.00       0.00          0          0          0          0          0          0          0          0
  leastinf         :       0.00       0.00          0          0          0          0          0          0          0          0
  lookahead        :       0.00       0.00          0          0          0          0          0          0          0          0
  mostinf          :       0.00       0.00          0          0          0          0          0          0          0          0
  multaggr         :       0.00       0.00          0          0          0          0          0          0          0          0
  nodereopt        :       0.00       0.00          0          0          0          0          0          0          0          0
  pscost           :       0.00       0.00          0          0          0          0          0          0          0          0
  random           :       0.00       0.00          0          0          0          0          0          0          0          0
  relpscost        :      55.24       0.00      14280          0          0          0      24574          0          2      24814
  vanillafullstrong:       0.00       0.00          0          0          0          0          0          0          0          0
Primal Heuristics  :   ExecTime  SetupTime      Calls      Found       Best
  LP solutions     :       0.00          -          -          0          0
  relax solutions  :       0.00          -          -          0          0
  pseudo solutions :       0.00          -          -          0          0
  strong branching :       0.01          -          -          0          0
  actconsdiving    :       0.00       0.00          0          0          0
  adaptivediving   :       3.53       0.00         15          0          0
  alns             :      29.78       0.00          7          2          2
  bound            :       0.00       0.00          0          0          0
  clique           :       0.03       0.00          1          0          0
  coefdiving       :       0.00       0.00          0          0          0
  completesol      :       0.00       0.00          0          0          0
  conflictdiving   :      21.50       0.00         90          0          0
  crossover        :      52.25       0.00          6          1          1
  dins             :       0.00       0.00          0          0          0
  distributiondivin:      36.19       0.00         80          0          0
  dps              :       0.00       0.00          0          0          0
  dualval          :       0.00       0.00          0          0          0
  farkasdiving     :       0.00       0.00          0          0          0
  feaspump         :      11.78       0.00         32          0          0
  fixandinfer      :       0.00       0.00          0          0          0
  fracdiving       :      18.96       0.00         89          0          0
  gins             :      68.65       0.00          7          2          2
  guideddiving     :      20.71       0.00         89          0          0
  indicator        :       0.03       0.00          0          0          0
  indicatordiving  :       0.00       0.00          0          0          0
  intdiving        :       0.00       0.00          0          0          0
  intshifting      :       1.41       0.00         25          0          0
  linesearchdiving :      21.94       0.00         89          0          0
  localbranching   :       0.00       0.00          0          0          0
  locks            :       0.02       0.00          1          0          0
  lpface           :       0.01       0.00          0          0          0
  mpec             :      55.52       0.00          5          0          0
  multistart       :       0.00       0.00          0          0          0
  mutation         :       0.00       0.00          0          0          0
  nlpdiving        :      11.81       0.00          6          0          0
  objpscostdiving  :      40.76       0.00         17          0          0
  octane           :       0.00       0.00          0          0          0
  ofins            :       0.00       0.00          0          0          0
  oneopt           :       0.01       0.00          8          0          0
  padm             :       0.00       0.00          0          0          0
  proximity        :       0.00       0.00          0          0          0
  pscostdiving     :      37.40       0.00         90          0          0
  randrounding     :       1.40       0.00       4077          0          0
  rens             :       0.00       0.00          0          0          0
  reoptsols        :       0.00       0.00          0          0          0
  repair           :       0.00       0.00          0          0          0
  rins             :      13.74       0.00          8          0          0
  rootsoldiving    :      10.24       0.00         15          0          0
  rounding         :       1.34       0.00       3743          0          0
  shiftandpropagate:       0.02       0.00          1          0          0
  shifting         :       6.33       0.00       1289          0          0
  simplerounding   :       0.03       0.00          0          0          0
  subnlp           :      13.79       0.01         19          4          4
  trivial          :       0.01       0.00          2          0          0
  trivialnegation  :       0.00       0.00          0          0          0
  trustregion      :       0.00       0.00          0          0          0
  trysol           :       0.02       0.00          0          0          0
  twoopt           :       0.00       0.00          0          0          0
  undercover       :       0.04       0.00          1          0          0
  vbounds          :       0.00       0.00          0          0          0
  veclendiving     :      17.88       0.00         89          0          0
  zeroobj          :       0.00       0.00          0          0          0
  zirounding       :       0.11       0.00       1000          0          0
  other solutions  :          -          -          -          0          -
Expressions        :   #IntEval  IntEvalTi   #RevProp  RevPropTi    DomReds    Cutoffs  #Estimate  EstimTime  Branching  #Simplify SimplifyTi Simplified
  pow              :    4112480       0.62      13216       0.01       7054          0   42949109       3.82          0       2168       0.00          1
  prod             :    6063329       1.12      12066       0.00        278          2   36449372       2.03          0       3463       0.00        151
  sum              :   10175827       1.74   10002931       2.56    1506637       2538      10475       0.00          0       6464       0.00       3947
  val              :          0       0.00          0       0.00          0          0          0       0.00          0          0       0.00          0
  var              :   53677477       2.40          0       0.00          0          0          0       0.00          0      11607       0.00        834
  varidx           :          0       0.00          0       0.00          0          0          0       0.00          0          0       0.00          0
Nlhdlrs            :    Detects  DetectAll DetectTime   #IntEval  IntEvalTi   #RevProp  RevPropTi    DomReds    Cutoffs   #Enforce   EnfoTime       Cuts  Branching
  soc              :          0          0       0.00          0       0.00          0       0.00          0          0          0       0.00          0          0
  convex           :          0          0       0.01          0       0.00          0       0.00          0          0          0       0.00          0          0
  concave          :          0          0       0.01          0       0.00          0       0.00          0          0          0       0.00          0          0
  quotient         :          0          0       0.00          0       0.00          0       0.00          0          0          0       0.00          0          0
  quadratic        :          1         21       0.01       5579       0.01       5565       0.02       2732          0          0       0.00          0          0
  default          :       5256     110614       0.01   20328824       4.50   10041143      10.50    1513969       2549   79405842      75.19    1411918          0
  bilinear         :        648       1296       0.00    4220017       0.43       8184       0.00          0          0   31731067       3.12        134          0
  perspective      :       1105       2210       0.00          0       0.00          0       0.00       2016          0   34926709     868.42    1008245          0
LP                 :       Time      Calls Iterations  Iter/call   Iter/sec  Time-0-It Calls-0-It    ItLimit
  primal LP        :     506.37      12243          0       0.00       0.00     506.36      12243
  dual LP          :    1143.84      72535    2733873      38.30    2390.07       3.76       1157
  lex dual LP      :       0.00          0          0       0.00          -
  barrier LP       :       0.00          0          0       0.00          -       0.00          0
  resolve instable :       1.15         52        668      12.85     579.26
  diving/probing LP:     282.49      10579    1207175     114.11    4273.28
  strong branching :      30.75       3287     133560      40.63    4343.37          -          -        299
    (at root node) :          -        261       9414      36.07          -
  conflict analysis:       0.01          2         40      20.00          -
NLP relaxation     :
  solve time       :      11.80 (6 calls)
  convexity        :  nonconvex (2136 linear rows, 0 convex ineq., 0 nonconvex ineq., 1554 nonlinear eq. or two-sided ineq.)
NLP Solvers        :  #Problems  ProblemTi    #Solves  SolveTime      #Iter  Time/Iter      #Okay #TimeLimit #IterLimit #LObjLimit #Interrupt  #NumError #EvalError  #OutOfMem #LicenseEr #OtherTerm   #GlobOpt    #LocOpt  #Feasible #LocInfeas #GlobInfea #Unbounded   #Unknown
  ipopt            :         28       5.40         32      75.83       2355       0.03         32          0          0          0          0          0          0          0          0          0          0         26          0          0          0          0          6
B&B Tree           :
  number of runs   :          2
  nodes            :      12419 (12406 internal, 13 leaves)
  feasible leaves  :          0
  infeas. leaves   :         12
  objective leaves :          0
  nodes (total)    :      12420 (12407 internal, 13 leaves)
  nodes left       :      12395
  max depth        :         51
  max depth (total):         51
  backtracks       :        707 (5.7%)
  early backtracks :          0 (0.0%)
  nodes exc. ref.  :          0 (0.0%)
  delayed cutoffs  :          0
  repropagations   :          0 (0 domain reductions, 0 cutoffs)
  avg switch length:       2.78
  switching time   :     515.04
Root Node          :
  First LP value   : +0.00000000000000e+00
  First LP Iters   :       1333 (28758.82 Iter/sec)
  First LP Time    :       0.05
  Final Dual Bound : +6.59643156356176e+02
  Final Root Iters :      38394
  Root LP Estimate : +1.43994663426388e+03
Solution           :
  Solutions found  :          9 (9 improvements)
  First Solution   : +9.89974703251567e+03   (in run 1, after 1 nodes, 0.94 seconds, depth 0, found by <feaspump>)
  Gap First Sol.   :   infinite
  Gap Last Sol.    :     735.79 %
  Primal Bound     : +7.71717375869015e+03   (in run 2, after 4159 nodes, 1444.03 seconds, depth 30, found by <crossover>)
  Dual Bound       : +1.00279289786999e+03
  Gap              :     669.57 %
Integrals          :      Total       Avg%
  primal-dual      :  317202.68      88.11
  primal-ref       :          -          - (not evaluated)
  dual-ref         :          -          - (not evaluated)
